(set-info :source |printed by MathSAT|)
(declare-fun call_synapse.ite14.next () Int)
(declare-fun call_synapse.ite12 () Int)
(declare-fun call_synapse.flby.next () Int)
(declare-fun call_synapse.garde_s2.next () Bool)
(declare-fun call_synapse.flby4 () Int)
(declare-fun call_synapse.ite6.next () Int)
(declare-fun call_synapse.dirty_s () Int)
(declare-fun call_synapse.valid_s.next () Int)
(declare-fun call_synapse.ite18.next () Int)
(declare-fun call_synapse.ite9.next () Int)
(declare-fun call_synapse.ite11 () Int)
(declare-fun call_synapse.ite17 () Int)
(declare-fun call_Sofar.Sofar () Bool)
(declare-fun call_synapse.ite4 () Int)
(declare-fun param_e_s1 () Bool)
(declare-fun call_Sofar.Sofar.next () Bool)
(declare-fun call_synapse.flby3.next () Int)
(declare-fun _OK_ () Bool)
(declare-fun call_synapse.ite11.next () Int)
(declare-fun call_synapse.flby () Int)
(declare-fun call_excludes3.excludes () Bool)
(declare-fun call_synapse.ite7 () Int)
(declare-fun call_synapse.ite8 () Int)
(declare-fun call_synapse.ite5 () Int)
(declare-fun call_synapse.ite5.next () Int)
(declare-fun call_excludes3.excludes.next () Bool)
(declare-fun call_synapse.ite17.next () Int)
(declare-fun dirty_s.next () Int)
(declare-fun dirty_s () Int)
(declare-fun call_synapse.ite4.next () Int)
(declare-fun call_synapse.ite14 () Int)
(declare-fun _OK_.next () Bool)
(declare-fun param_e_s2 () Bool)
(declare-fun call_synapse.flby4.next () Int)
(declare-fun call_synapse.ite10 () Int)
(declare-fun call_synapse.ite8.next () Int)
(declare-fun call_synapse.ite16 () Int)
(declare-fun mem_init_s.next () Int)
(declare-fun call_Sofar.flby () Bool)
(declare-fun call_synapse.ite13.next () Int)
(declare-fun call_synapse.ite3.next () Int)
(declare-fun call_synapse.ite12.next () Int)
(declare-fun call_synapse.ite7.next () Int)
(declare-fun env.next () Bool)
(declare-fun call_synapse.ite6 () Int)
(declare-fun call_synapse.ite13 () Int)
(declare-fun call_synapse.ite16.next () Int)
(declare-fun call_synapse.ite.next () Int)
(declare-fun call_synapse.invalid_s.next () Int)
(declare-fun param_e_s3.next () Bool)
(declare-fun call_synapse.invalid_s () Int)
(declare-fun call_synapse.flby3 () Int)
(declare-fun call_synapse.ite10.next () Int)
(declare-fun mem_init_s () Int)
(declare-fun call_synapse.dirty_s.next () Int)
(declare-fun call_synapse.flby2.next () Int)
(declare-fun param_e_s3 () Bool)
(declare-fun call_synapse.ite () Int)
(declare-fun call_synapse.ite15.next () Int)
(declare-fun param_init_invalid_s.next () Int)
(declare-fun call_synapse.ite2.next () Int)
(declare-fun call_synapse.mem_init_s () Int)
(declare-fun invalid_s () Int)
(declare-fun call_Sofar.flby.next () Bool)
(declare-fun env () Bool)
(declare-fun valid_s.next () Int)
(declare-fun call_synapse.garde_s1.next () Bool)
(declare-fun call_synapse.ite18 () Int)
(declare-fun call_synapse.ite2 () Int)
(declare-fun call_synapse.mem_init_s.next () Int)
(declare-fun param_e_s1.next () Bool)
(declare-fun valid_s () Int)
(declare-fun param_e_s2.next () Bool)
(declare-fun call_synapse.garde_s3.next () Bool)
(declare-fun call_synapse.flby2 () Int)
(declare-fun call_synapse.valid_s () Int)
(declare-fun invalid_s.next () Int)
(define-fun .def_779 () Bool (= call_Sofar.flby.next call_Sofar.Sofar.next))
(define-fun .def_774 () Bool (and param_e_s3.next param_e_s2.next))
(define-fun .def_772 () Bool (and param_e_s3.next param_e_s1.next))
(define-fun .def_771 () Bool (and param_e_s1.next param_e_s2.next))
(define-fun .def_773 () Bool (or .def_771 .def_772))
(define-fun .def_775 () Bool (or .def_773 .def_774))
(define-fun .def_776 () Bool (not .def_775))
(define-fun .def_777 () Bool (= call_excludes3.excludes.next .def_776))
(define-fun .def_769 () Bool (= call_synapse.flby.next call_synapse.mem_init_s.next))
(define-fun .def_767 () Bool (= call_synapse.flby4.next call_synapse.dirty_s.next))
(define-fun .def_765 () Bool (= call_synapse.flby3.next call_synapse.valid_s.next))
(define-fun .def_763 () Bool (= call_synapse.flby2.next call_synapse.invalid_s.next))
(define-fun .def_759 () Bool (= call_synapse.ite16.next call_synapse.ite17.next))
(define-fun .def_760 () Bool (or param_e_s2.next .def_759))
(define-fun .def_756 () Bool (= call_synapse.ite14.next call_synapse.ite17.next))
(define-fun .def_747 () Bool (not param_e_s2.next))
(define-fun .def_757 () Bool (or .def_747 .def_756))
(define-fun .def_753 () Bool (= call_synapse.ite10.next call_synapse.ite11.next))
(define-fun .def_754 () Bool (or param_e_s2.next .def_753))
(define-fun .def_750 () Bool (= call_synapse.ite8.next call_synapse.ite11.next))
(define-fun .def_751 () Bool (or .def_747 .def_750))
(define-fun .def_746 () Bool (= call_synapse.ite2.next call_synapse.ite5.next))
(define-fun .def_748 () Bool (or .def_746 .def_747))
(define-fun .def_743 () Bool (= call_synapse.ite4.next call_synapse.ite5.next))
(define-fun .def_745 () Bool (or .def_743 param_e_s2.next))
(define-fun .def_749 () Bool (and .def_745 .def_748))
(define-fun .def_752 () Bool (and .def_749 .def_751))
(define-fun .def_755 () Bool (and .def_752 .def_754))
(define-fun .def_758 () Bool (and .def_755 .def_757))
(define-fun .def_761 () Bool (and .def_758 .def_760))
(define-fun .def_739 () Bool (= call_synapse.ite18.next call_synapse.ite17.next))
(define-fun .def_740 () Bool (or param_e_s1.next .def_739))
(define-fun .def_735 () Bool (= call_synapse.ite13.next call_synapse.ite18.next))
(define-fun .def_725 () Bool (not param_e_s1.next))
(define-fun .def_736 () Bool (or .def_725 .def_735))
(define-fun .def_732 () Bool (= call_synapse.ite12.next call_synapse.ite11.next))
(define-fun .def_733 () Bool (or param_e_s1.next .def_732))
(define-fun .def_728 () Bool (= call_synapse.ite7.next call_synapse.ite12.next))
(define-fun .def_729 () Bool (or .def_725 .def_728))
(define-fun .def_724 () Bool (= call_synapse.ite.next call_synapse.ite6.next))
(define-fun .def_726 () Bool (or .def_724 .def_725))
(define-fun .def_721 () Bool (= call_synapse.ite6.next call_synapse.ite5.next))
(define-fun .def_723 () Bool (or .def_721 param_e_s1.next))
(define-fun .def_727 () Bool (and .def_723 .def_726))
(define-fun .def_730 () Bool (and .def_727 .def_729))
(define-fun .def_734 () Bool (and .def_730 .def_733))
(define-fun .def_737 () Bool (and .def_734 .def_736))
(define-fun .def_741 () Bool (and .def_737 .def_740))
(define-fun .def_718 () Bool (= env.next call_Sofar.Sofar.next))
(define-fun .def_715 () Bool (= mem_init_s.next call_synapse.mem_init_s.next))
(define-fun .def_711 () Bool (= dirty_s.next call_synapse.dirty_s.next))
(define-fun .def_708 () Bool (= valid_s.next call_synapse.valid_s.next))
(define-fun .def_704 () Bool (= invalid_s.next call_synapse.invalid_s.next))
(define-fun .def_698 () Bool (<= 2 dirty_s.next))
(define-fun .def_699 () Bool (not .def_698))
(define-fun .def_696 () Bool (not env.next))
(define-fun .def_700 () Bool (or .def_696 .def_699))
(define-fun .def_701 () Bool (= _OK_.next .def_700))
(define-fun .def_705 () Bool (and .def_701 .def_704))
(define-fun .def_709 () Bool (and .def_705 .def_708))
(define-fun .def_712 () Bool (and .def_709 .def_711))
(define-fun .def_716 () Bool (and .def_712 .def_715))
(define-fun .def_719 () Bool (and .def_716 .def_718))
(define-fun .def_742 () Bool (and .def_719 .def_741))
(define-fun .def_762 () Bool (and .def_742 .def_761))
(define-fun .def_764 () Bool (and .def_762 .def_763))
(define-fun .def_766 () Bool (and .def_764 .def_765))
(define-fun .def_768 () Bool (and .def_766 .def_767))
(define-fun .def_770 () Bool (and .def_768 .def_769))
(define-fun .def_778 () Bool (and .def_770 .def_777))
(define-fun .def_780 () Bool (and .def_778 .def_779))
(define-fun .def_548 () Bool (= call_Sofar.flby call_Sofar.Sofar))
(define-fun .def_543 () Bool (and param_e_s3 param_e_s2))
(define-fun .def_541 () Bool (and param_e_s3 param_e_s1))
(define-fun .def_540 () Bool (and param_e_s1 param_e_s2))
(define-fun .def_542 () Bool (or .def_540 .def_541))
(define-fun .def_544 () Bool (or .def_542 .def_543))
(define-fun .def_545 () Bool (not .def_544))
(define-fun .def_546 () Bool (= call_excludes3.excludes .def_545))
(define-fun .def_538 () Bool (= call_synapse.flby call_synapse.mem_init_s))
(define-fun .def_536 () Bool (= call_synapse.flby4 call_synapse.dirty_s))
(define-fun .def_534 () Bool (= call_synapse.flby3 call_synapse.valid_s))
(define-fun .def_532 () Bool (= call_synapse.flby2 call_synapse.invalid_s))
(define-fun .def_528 () Bool (= call_synapse.ite16 call_synapse.ite17))
(define-fun .def_529 () Bool (or param_e_s2 .def_528))
(define-fun .def_525 () Bool (= call_synapse.ite14 call_synapse.ite17))
(define-fun .def_516 () Bool (not param_e_s2))
(define-fun .def_526 () Bool (or .def_516 .def_525))
(define-fun .def_522 () Bool (= call_synapse.ite10 call_synapse.ite11))
(define-fun .def_523 () Bool (or param_e_s2 .def_522))
(define-fun .def_519 () Bool (= call_synapse.ite8 call_synapse.ite11))
(define-fun .def_520 () Bool (or .def_516 .def_519))
(define-fun .def_515 () Bool (= call_synapse.ite5 call_synapse.ite2))
(define-fun .def_517 () Bool (or .def_515 .def_516))
(define-fun .def_511 () Bool (= call_synapse.ite4 call_synapse.ite5))
(define-fun .def_513 () Bool (or .def_511 param_e_s2))
(define-fun .def_518 () Bool (and .def_513 .def_517))
(define-fun .def_521 () Bool (and .def_518 .def_520))
(define-fun .def_524 () Bool (and .def_521 .def_523))
(define-fun .def_527 () Bool (and .def_524 .def_526))
(define-fun .def_530 () Bool (and .def_527 .def_529))
(define-fun .def_507 () Bool (= call_synapse.ite18 call_synapse.ite17))
(define-fun .def_508 () Bool (or param_e_s1 .def_507))
(define-fun .def_503 () Bool (= call_synapse.ite13 call_synapse.ite18))
(define-fun .def_490 () Bool (not param_e_s1))
(define-fun .def_504 () Bool (or .def_490 .def_503))
(define-fun .def_499 () Bool (= call_synapse.ite12 call_synapse.ite11))
(define-fun .def_500 () Bool (or param_e_s1 .def_499))
(define-fun .def_495 () Bool (= call_synapse.ite7 call_synapse.ite12))
(define-fun .def_496 () Bool (or .def_490 .def_495))
(define-fun .def_489 () Bool (= call_synapse.ite6 call_synapse.ite))
(define-fun .def_491 () Bool (or .def_489 .def_490))
(define-fun .def_485 () Bool (= call_synapse.ite6 call_synapse.ite5))
(define-fun .def_487 () Bool (or .def_485 param_e_s1))
(define-fun .def_492 () Bool (and .def_487 .def_491))
(define-fun .def_497 () Bool (and .def_492 .def_496))
(define-fun .def_501 () Bool (and .def_497 .def_500))
(define-fun .def_505 () Bool (and .def_501 .def_504))
(define-fun .def_509 () Bool (and .def_505 .def_508))
(define-fun .def_481 () Bool (= env call_Sofar.Sofar))
(define-fun .def_478 () Bool (= call_synapse.mem_init_s mem_init_s))
(define-fun .def_475 () Bool (= dirty_s call_synapse.dirty_s))
(define-fun .def_472 () Bool (= valid_s call_synapse.valid_s))
(define-fun .def_468 () Bool (= invalid_s call_synapse.invalid_s))
(define-fun .def_462 () Bool (<= 2 dirty_s))
(define-fun .def_463 () Bool (not .def_462))
(define-fun .def_460 () Bool (not env))
(define-fun .def_464 () Bool (or .def_460 .def_463))
(define-fun .def_465 () Bool (= _OK_ .def_464))
(define-fun .def_469 () Bool (and .def_465 .def_468))
(define-fun .def_473 () Bool (and .def_469 .def_472))
(define-fun .def_476 () Bool (and .def_473 .def_475))
(define-fun .def_479 () Bool (and .def_476 .def_478))
(define-fun .def_482 () Bool (and .def_479 .def_481))
(define-fun .def_510 () Bool (and .def_482 .def_509))
(define-fun .def_531 () Bool (and .def_510 .def_530))
(define-fun .def_533 () Bool (and .def_531 .def_532))
(define-fun .def_535 () Bool (and .def_533 .def_534))
(define-fun .def_537 () Bool (and .def_535 .def_536))
(define-fun .def_539 () Bool (and .def_537 .def_538))
(define-fun .def_547 () Bool (and .def_539 .def_546))
(define-fun .def_549 () Bool (and .def_547 .def_548))
(define-fun .def_781 () Bool (and .def_549 .def_780))
(define-fun .def_687 () Bool (<= 0 param_init_invalid_s.next))
(define-fun .def_689 () Bool (and .def_687 call_excludes3.excludes.next))
(define-fun .def_690 () Bool (and call_Sofar.Sofar .def_689))
(define-fun .def_692 () Bool (= .def_690 call_Sofar.flby.next))
(define-fun .def_684 () Bool (= call_synapse.ite18.next call_synapse.flby4.next))
(define-fun .def_680 () Bool (= call_synapse.ite12.next call_synapse.flby3.next))
(define-fun .def_676 () Bool (= call_synapse.ite6.next call_synapse.flby2.next))
(define-fun .def_672 () Bool (= call_synapse.mem_init_s call_synapse.flby.next))
(define-fun .def_650 () Bool (<= 1 call_synapse.invalid_s))
(define-fun .def_668 () Bool (= call_synapse.garde_s3.next .def_650))
(define-fun .def_665 () Bool (= call_synapse.ite9.next 0))
(define-fun .def_590 () Bool (not call_synapse.garde_s3.next))
(define-fun .def_666 () Bool (or .def_590 .def_665))
(define-fun .def_663 () Bool (= call_synapse.ite15.next 1))
(define-fun .def_664 () Bool (or .def_590 .def_663))
(define-fun .def_667 () Bool (and .def_664 .def_666))
(define-fun .def_669 () Bool (and .def_667 .def_668))
(define-fun .def_659 () Bool (<= 1 call_synapse.valid_s))
(define-fun .def_660 () Bool (= call_synapse.garde_s2.next .def_659))
(define-fun .def_656 () Bool (= call_synapse.ite8.next 0))
(define-fun .def_574 () Bool (not call_synapse.garde_s2.next))
(define-fun .def_657 () Bool (or .def_574 .def_656))
(define-fun .def_654 () Bool (= call_synapse.ite14.next 1))
(define-fun .def_655 () Bool (or .def_574 .def_654))
(define-fun .def_658 () Bool (and .def_655 .def_657))
(define-fun .def_661 () Bool (and .def_658 .def_660))
(define-fun .def_651 () Bool (= call_synapse.garde_s1.next .def_650))
(define-fun .def_648 () Bool (= call_synapse.ite13.next 0))
(define-fun .def_561 () Bool (not call_synapse.garde_s1.next))
(define-fun .def_649 () Bool (or .def_561 .def_648))
(define-fun .def_652 () Bool (and .def_649 .def_651))
(define-fun .def_644 () Bool (= call_synapse.dirty_s call_synapse.ite15.next))
(define-fun .def_645 () Bool (or call_synapse.garde_s3.next .def_644))
(define-fun .def_641 () Bool (= call_synapse.dirty_s call_synapse.ite13.next))
(define-fun .def_642 () Bool (or call_synapse.garde_s1.next .def_641))
(define-fun .def_638 () Bool (= call_synapse.dirty_s call_synapse.ite14.next))
(define-fun .def_639 () Bool (or call_synapse.garde_s2.next .def_638))
(define-fun .def_643 () Bool (and .def_639 .def_642))
(define-fun .def_646 () Bool (and .def_643 .def_645))
(define-fun .def_633 () Bool (= call_synapse.valid_s call_synapse.ite9.next))
(define-fun .def_634 () Bool (or call_synapse.garde_s3.next .def_633))
(define-fun .def_630 () Bool (= call_synapse.valid_s call_synapse.ite8.next))
(define-fun .def_631 () Bool (or call_synapse.garde_s2.next .def_630))
(define-fun .def_624 () Int (* (- 1) call_synapse.ite7.next))
(define-fun .def_625 () Int (+ call_synapse.valid_s .def_624))
(define-fun .def_626 () Bool (= .def_625 (- 1)))
(define-fun .def_627 () Bool (or .def_561 .def_626))
(define-fun .def_622 () Bool (= call_synapse.valid_s call_synapse.ite7.next))
(define-fun .def_623 () Bool (or call_synapse.garde_s1.next .def_622))
(define-fun .def_628 () Bool (and .def_623 .def_627))
(define-fun .def_632 () Bool (and .def_628 .def_631))
(define-fun .def_635 () Bool (and .def_632 .def_634))
(define-fun .def_617 () Bool (= call_synapse.dirty_s call_synapse.ite16.next))
(define-fun .def_618 () Bool (or param_e_s3.next .def_617))
(define-fun .def_614 () Bool (= call_synapse.ite15.next call_synapse.ite16.next))
(define-fun .def_601 () Bool (not param_e_s3.next))
(define-fun .def_615 () Bool (or .def_601 .def_614))
(define-fun .def_609 () Bool (= call_synapse.valid_s call_synapse.ite10.next))
(define-fun .def_610 () Bool (or param_e_s3.next .def_609))
(define-fun .def_606 () Bool (= call_synapse.ite9.next call_synapse.ite10.next))
(define-fun .def_607 () Bool (or .def_601 .def_606))
(define-fun .def_600 () Bool (= call_synapse.ite3.next call_synapse.ite4.next))
(define-fun .def_602 () Bool (or .def_600 .def_601))
(define-fun .def_597 () Bool (= call_synapse.invalid_s call_synapse.ite4.next))
(define-fun .def_599 () Bool (or .def_597 param_e_s3.next))
(define-fun .def_603 () Bool (and .def_599 .def_602))
(define-fun .def_608 () Bool (and .def_603 .def_607))
(define-fun .def_611 () Bool (and .def_608 .def_610))
(define-fun .def_616 () Bool (and .def_611 .def_615))
(define-fun .def_619 () Bool (and .def_616 .def_618))
(define-fun .def_593 () Bool (= call_synapse.invalid_s call_synapse.ite3.next))
(define-fun .def_594 () Bool (or call_synapse.garde_s3.next .def_593))
(define-fun .def_581 () Int (* (- 1) call_synapse.ite3.next))
(define-fun .def_585 () Int (+ call_synapse.dirty_s .def_581))
(define-fun .def_586 () Int (+ call_synapse.valid_s .def_585))
(define-fun .def_587 () Int (+ call_synapse.invalid_s .def_586))
(define-fun .def_588 () Bool (= .def_587 1))
(define-fun .def_591 () Bool (or .def_588 .def_590))
(define-fun .def_577 () Bool (= call_synapse.invalid_s call_synapse.ite2.next))
(define-fun .def_578 () Bool (or call_synapse.garde_s2.next .def_577))
(define-fun .def_565 () Int (* (- 1) call_synapse.ite2.next))
(define-fun .def_569 () Int (+ call_synapse.dirty_s .def_565))
(define-fun .def_570 () Int (+ call_synapse.valid_s .def_569))
(define-fun .def_571 () Int (+ call_synapse.invalid_s .def_570))
(define-fun .def_572 () Bool (= .def_571 1))
(define-fun .def_575 () Bool (or .def_572 .def_574))
(define-fun .def_555 () Int (* (- 1) call_synapse.ite.next))
(define-fun .def_558 () Int (+ call_synapse.dirty_s .def_555))
(define-fun .def_559 () Int (+ call_synapse.invalid_s .def_558))
(define-fun .def_560 () Bool (= .def_559 1))
(define-fun .def_562 () Bool (or .def_560 .def_561))
(define-fun .def_552 () Bool (= call_synapse.invalid_s call_synapse.ite.next))
(define-fun .def_554 () Bool (or .def_552 call_synapse.garde_s1.next))
(define-fun .def_563 () Bool (and .def_554 .def_562))
(define-fun .def_576 () Bool (and .def_563 .def_575))
(define-fun .def_579 () Bool (and .def_576 .def_578))
(define-fun .def_592 () Bool (and .def_579 .def_591))
(define-fun .def_595 () Bool (and .def_592 .def_594))
(define-fun .def_620 () Bool (and .def_595 .def_619))
(define-fun .def_636 () Bool (and .def_620 .def_635))
(define-fun .def_647 () Bool (and .def_636 .def_646))
(define-fun .def_653 () Bool (and .def_647 .def_652))
(define-fun .def_662 () Bool (and .def_653 .def_661))
(define-fun .def_670 () Bool (and .def_662 .def_669))
(define-fun .def_673 () Bool (and .def_670 .def_672))
(define-fun .def_677 () Bool (and .def_673 .def_676))
(define-fun .def_681 () Bool (and .def_677 .def_680))
(define-fun .def_685 () Bool (and .def_681 .def_684))
(define-fun .def_693 () Bool (and .def_685 .def_692))
(define-fun .def_782 () Bool (and .def_693 .def_781))
(assert .def_782)
